8
1 2
1 3
9 4
9 6
9 2
9 3
1 4
1 6
10
0 0
0 10
5 0
5 5
5 10
10 10
10 0
3 4
5 4
7 4
11 11
0 0 0 0 0 0 0 0 0 0 0
0 1 1 1 1 1 1 1 1 1 0
0 0 1 1 1 1 1 1 1 0 0
0 0 1 1 1 1 1 1 1 0 0
0 0 1 0 1 0 1 0 1 0 0
0 0 0 0 0 0 0 0 0 0 0
0 0 1 1 1 1 1 1 1 0 0
0 1 1 1 1 1 1 1 1 1 0
0 1 1 1 1 1 1 1 1 1 0
0 1 1 1 1 1 1 1 1 1 0
0 0 0 0 0 0 0 0 0 0 0
